% File represents an instance of a Composite Structure problem to be solved by a CP framework
% Created on 2025-03-26 10:42:12.911
T = 50;
n = 36;
m = 60;
edges = [(1, 2),
(7, 8),
(13, 14),
(19, 20),
(25, 26),
(31, 32),
(2, 3),
(8, 9),
(14, 15),
(20, 21),
(26, 27),
(32, 33),
(3, 4),
(9, 10),
(15, 16),
(21, 22),
(27, 28),
(33, 34),
(4, 5),
(10, 11),
(16, 17),
(22, 23),
(28, 29),
(34, 35),
(6, 5),
(12, 11),
(18, 17),
(24, 23),
(30, 29),
(36, 35),
(1, 7),
(13, 7),
(19, 13),
(19, 25),
(25, 31),
(2, 8),
(14, 8),
(20, 14),
(20, 26),
(26, 32),
(3, 9),
(15, 9),
(21, 15),
(21, 27),
(27, 33),
(4, 10),
(16, 10),
(22, 16),
(22, 28),
(28, 34),
(5, 11),
(17, 11),
(23, 17),
(23, 29),
(29, 35),
(6, 12),
(18, 12),
(24, 18),
(24, 30),
(30, 36)];
counts = [|2, 16, 2, 20,
|2, 14, 2, 16,
|2, 14, 2, 12,
|2, 12, 2, 10,
|2, 10, 2, 6,
|4, 10, 4, 6,
|2, 16, 2, 18,
|2, 14, 2, 14,
|2, 10, 2, 12,
|2, 6, 2, 10,
|2, 4, 2, 6,
|2, 8, 2, 6,
|4, 16, 4, 20,
|4, 14, 4, 16,
|4, 10, 4, 14,
|4, 8, 4, 10,
|2, 8, 2, 8,
|2, 10, 2, 10,
|6, 18, 6, 20,
|6, 16, 6, 16,
|4, 16, 4, 14,
|4, 10, 4, 14,
|2, 10, 2, 12,
|2, 10, 2, 14,
|6, 16, 6, 16,
|6, 14, 6, 12,
|4, 14, 4, 10,
|4, 8, 4, 10,
|2, 6, 2, 10,
|2, 10, 2, 10,
|4, 14, 4, 16,
|4, 12, 4, 12,
|4, 12, 4, 6,
|4, 6, 4, 6,
|2, 6, 2, 4,
|2, 8, 2, 6|];
